Resources = {R1, R2, R3, R4, R5, R6, R7, R8, R9, R10};

Activities = {T, S, W, o, b};

slots = 48;

fixed =
fixed = fixed = [| R1: None, None, None, None, <>, A(o), <>, <>, <>, <>, <>, <>, <>, <>, <>, <>, ... ]; // array too long to display, dimensions: (30)
 // array too long to display, dimensions: (471)


requirements =
requirements = requirements = [| T: 0, 0, 0, 0, 0, 0, 3, 3, 2, 3, 3, 3, 3, 3, 2, 3, 2, 2, 1, 1, 1, 1, 2, 2, 1, ... ]; // array too long to display, dimensions: (30)
 // array too long to display, dimensions: (236)


activity_run_cost = array2d(Activities, SlotsAndZero,
activity_run_cost = activity_run_cost = [| T: 0, 200, 100, 2, 0, 0, 0, 2, 100, 200, 300, 400, 500, 600, 700, 800, 900, 10... ] // array too long to display, dimensions: (30)
 // array too long to display, dimensions: (241)
);

activity_frequency_cost = array2d(Activities, SlotsAndZero,
activity_frequency_cost = activity_frequency_cost = [| T: 0, 42, 0, 0, 0, 0, 8, 10, 12, 14, 16, 18, 20, 22, 24, 26, 28, 30, 32, 34, 3... ] // array too long to display, dimensions: (30)
 // array too long to display, dimensions: (241)
);

